c A SAT instance generated from a 3-CNF formula that had 60 clauses and 10 variables
p cnf 10 60
3 10 9 0
1 -5 3 0
-1 2 -4 0
-6 -10 7 0
-7 1 -4 0
-9 -8 1 0
10 6 -1 0
1 5 10 0
1 -9 7 0
4 -1 -3 0
8 -9 -2 0
-9 -10 4 0
-6 -4 8 0
-7 10 8 0
-3 -1 5 0
-6 -10 3 0
-3 -7 -6 0
-2 6 -9 0
-10 4 -3 0
6 -8 -3 0
8 -10 1 0
-9 1 -7 0
-5 -8 -3 0
10 -8 -5 0
-6 1 7 0
8 10 -7 0
-4 -9 7 0
-7 -1 -10 0
-2 -9 3 0
1 10 -2 0
-6 8 -7 0
-6 -3 9 0
-4 10 3 0
-8 1 6 0
-7 4 5 0
-7 -2 -3 0
-5 -2 4 0
-5 -2 6 0
9 -4 8 0
5 6 -8 0
5 -1 3 0
-5 4 -8 0
-7 -1 -8 0
2 -10 4 0
10 5 8 0
-4 3 -5 0
-6 10 5 0
-10 -5 -8 0
-1 5 6 0
5 -6 -8 0
-4 -2 -6 0
8 7 -1 0
6 5 1 0
-8 -4 9 0
-8 -10 6 0
-1 -6 4 0
8 -6 3 0
-4 -8 10 0
7 -6 -1 0
-8 -1 6 0
%
0

88 56 54 32 45 60 69 40 50 88
